Version identifier: 22.1.0.0 | 2022-03-09 | 1a383f8ce
CPXPARAM_Read_DataCheck                          1
1 of 1 MIP starts provided solutions.
MIP start 'm1' defined initial solution with objective 13.0000.
Tried aggregator 3 times.
MIP Presolve eliminated 1188 rows and 359 columns.
MIP Presolve modified 42 coefficients.
Aggregator did 869 substitutions.
Reduced MIP has 371 rows, 956 columns, and 2272 nonzeros.
Reduced MIP has 948 binaries, 8 generals, 0 SOSs, and 0 indicators.
Presolve time = 0.01 sec. (6.09 ticks)
Probing fixed 12 vars, tightened 0 bounds.
Probing changed sense of 1 constraints.
Probing time = 0.00 sec. (0.65 ticks)
Tried aggregator 2 times.
Detecting symmetries...
MIP Presolve eliminated 15 rows and 19 columns.
Aggregator did 3 substitutions.
Reduced MIP has 353 rows, 934 columns, and 2202 nonzeros.
Reduced MIP has 926 binaries, 8 generals, 0 SOSs, and 0 indicators.
Presolve time = 0.00 sec. (2.37 ticks)
Probing fixed 1 vars, tightened 0 bounds.
Probing time = 0.00 sec. (0.59 ticks)
Clique table members: 1421.
MIP emphasis: balance optimality and feasibility.
MIP search method: dynamic search.
Parallel mode: deterministic, using up to 8 threads.
Root relaxation solution time = 0.00 sec. (4.11 ticks)

        Nodes                                         Cuts/
   Node  Left     Objective  IInf  Best Integer    Best Bound    ItCnt     Gap

*     0+    0                           13.0000        0.0000           100.00%
      0     0        8.4636   255       13.0000        8.4636      293   34.90%
      0     0        cutoff             13.0000                    320    0.00%
Elapsed time = 0.09 sec. (36.92 ticks, tree = 0.01 MB, solutions = 1)

Zero-half cuts applied:  9
Lift and project cuts applied:  1
Gomory fractional cuts applied:  4

Root node processing (before b&c):
  Real time             =    0.09 sec. (37.00 ticks)
Parallel b&c, 8 threads:
  Real time             =    0.00 sec. (0.00 ticks)
  Sync time (average)   =    0.00 sec.
  Wait time (average)   =    0.00 sec.
                          ------------
Total (root+branch&cut) =    0.09 sec. (37.00 ticks)
